language ESSENCE' 1.0
$ minion Nodes: 10
$ minion TotalTime: 0.005082
$ Savile Row TotalTime: 1.604
letting c be 3
letting b_MSetExplicit be [3, 3, 3, 4;int(1..4)]
letting a_MSetExplicit be [3, 3, 3, 3;int(1..4)]
